Example_III/Log1_cores.log

Gurobi 9.0.2 (linux64) logging started Thu Sep 10 10:23:44 2020

Changed value of parameter LogFile to Log1_cores.log
   Prev:   Default: 
Changed value of parameter Threads to 1
   Prev: 0  Min: 0  Max: 1024  Default: 0
Gurobi Optimizer version 9.0.2 build v9.0.2rc0 (linux64)
Optimize a model with 10711 rows, 38880 columns and 175049 nonzeros
Model fingerprint: 0x9f913e7e
Variable types: 0 continuous, 38880 integer (38880 binary)
Coefficient statistics:
  Matrix range     [1e+00, 6e+01]
  Objective range  [1e+00, 1e+00]
  Bounds range     [1e+00, 1e+00]
  RHS range        [1e+00, 3e+02]
Presolve removed 661 rows and 721 columns
Presolve time: 0.42s
Presolved: 10050 rows, 38159 columns, 163615 nonzeros
Variable types: 0 continuous, 38159 integer (38159 binary)

Root relaxation: objective 1.000000e+00, 3572 iterations, 0.18 seconds

    Nodes    |    Current Node    |     Objective Bounds      |     Work
 Expl Unexpl |  Obj  Depth IntInf | Incumbent    BestBd   Gap | It/Node Time

     0     0    1.00000    0  486          -    1.00000      -     -    1s
     0     0    1.00000    0  523          -    1.00000      -     -    2s
     0     0    1.00000    0  501          -    1.00000      -     -    2s
     0     0    1.00000    0  227          -    1.00000      -     -    3s
     0     0    1.00000    0  281          -    1.00000      -     -    3s
     0     0    1.00000    0  206          -    1.00000      -     -    4s
     0     0    1.00000    0  244          -    1.00000      -     -    4s
     0     0    1.00000    0  216          -    1.00000      -     -    5s
     0     0    1.00000    0  315          -    1.00000      -     -    5s
     0     0    1.00000    0  225          -    1.00000      -     -    5s
     0     0    1.00000    0  225          -    1.00000      -     -    6s
     0     2    1.00000    0  225          -    1.00000      -     -    8s
   125     8 infeasible   33               -    1.00000      -   290   10s
   299    23    1.00000   59  417          -    1.00000      -   527   15s
   554    29    1.00000   82  380          -    1.00000      -   434   20s
   813    77    1.00000   50  245          -    1.00000      -   405   25s
  1050   200    1.00000  160  273          -    1.00000      -   387   30s
  1075   219    1.00000  157  172          -    1.00000      -   380   35s
  1083   224    1.00000  127  237          -    1.00000      -   377   40s
  1089   228    1.00000  158  241          -    1.00000      -   375   45s
  1093   231    1.00000    5  186          -    1.00000      -   374   51s
  1102   231    1.00000   16  232          -    1.00000      -   333   55s
  1167   213    1.00000   41  261          -    1.00000      -   319   60s
  1273   230    1.00000   70  179          -    1.00000      -   298   65s
  1397   305    1.00000  114  180          -    1.00000      -   276   70s
  1566   417    1.00000  186  120          -    1.00000      -   256   75s
  1660   480    1.19726  244  182          -    1.00000      -   253   80s
  1889   665    2.08472  352  100          -    1.00000      -   227   85s
  2135   911    3.02083  448  107          -    1.00000      -   207   90s
H 2425  1197                       5.0000000    1.00000  80.0%   186   93s
H 2425   839                       4.0000000    1.00000  75.0%   186   93s
  2479   868    1.28983  192  117    4.00000    1.00000  75.0%   183   95s
  2659   978    1.15330  170  120    4.00000    1.00000  75.0%   173  100s
  2869  1126    2.21023  369  112    4.00000    1.00000  75.0%   162  105s
  2958  1203    1.00000  227  123    4.00000    1.00000  75.0%   158  112s
  2965  1210    1.00000  234  123    4.00000    1.00000  75.0%   157  115s
H 3019   917                       3.0000000    1.00000  66.7%   155  118s
  3073   969    1.46341  339  110    3.00000    1.00000  66.7%   153  120s
H 3100   501                       2.0000000    1.00000  50.0%   153  121s
  3102   498    1.00000  185  225    2.00000    1.00000  50.0%   153  125s
  3105   500    1.00000  195  280    2.00000    1.00000  50.0%   152  130s
  3109   503    1.00000  121   73    2.00000    1.00000  50.0%   152  136s
  3113   505    1.00000  206  122    2.00000    1.00000  50.0%   152  140s
  3116   507    1.00000  194  261    2.00000    1.00000  50.0%   152  145s
  3119   509    1.00000   55  176    2.00000    1.00000  50.0%   152  150s
  3123   512    1.00000  222  150    2.00000    1.00000  50.0%   152  159s
  3124   513    1.00000   78  123    2.00000    1.00000  50.0%   152  160s
  3127   517    1.00000   23  126    2.00000    1.00000  50.0%   250  165s
  3159   511    1.00000   41  245    2.00000    1.00000  50.0%   250  170s
  3216   528    1.00000   67   84    2.00000    1.00000  50.0%   252  175s
* 3272   444              95       1.0000000    1.00000  0.00%   249  176s

Cutting planes:
  Gomory: 4
  Cover: 68
  Clique: 129
  MIR: 7
  StrongCG: 6
  Flow cover: 57
  Inf proof: 1
  Zero half: 20
  RLT: 6

Explored 3273 nodes (1364284 simplex iterations) in 176.71 seconds
Thread count was 1 (of 80 available processors)

Solution count 5: 1 2 3 ... 5

Optimal solution found (tolerance 1.00e-04)
Best objective 1.000000000000e+00, best bound 1.000000000000e+00, gap 0.0000%
